c cksystemsgroup.github.io/unicorn
c CNF contains a total of 489 clauses.
c CNF contains a total of 116 variables.
c CNF clauses cover 1 bad states.
c Variable name mapping (17 names):
c   1: input[bit=0]
c   2: input[bit=0]
c   4: input[bit=1]
c   6: input[bit=1]
c   11: input[bit=2]
c   16: input[bit=2]
c   21: input[bit=3]
c   29: input[bit=3]
c   34: input[bit=4]
c   45: input[bit=4]
c   50: input[bit=5]
c   64: input[bit=5]
c   69: input[bit=6]
c   86: input[bit=6]
c   91: input[bit=7]
c   111: input[bit=7]
c   116: ?
p cnf 116 489
-1 -2 3 0
1 -3 0
2 -3 0
-4 -2 5 0
4 -5 0
2 -5 0
-1 -6 7 0
1 -7 0
6 -7 0
-8 0
5 7 8 -9 0
5 7 -8 9 0
5 -7 8 9 0
5 -7 -8 -9 0
-5 7 8 9 0
-5 7 -8 -9 0
-5 -7 8 -9 0
-5 -7 -8 9 0
-3 -9 10 0
3 -10 0
9 -10 0
-11 -2 12 0
11 -12 0
2 -12 0
-4 -6 13 0
4 -13 0
6 -13 0
5 7 -14 0
5 8 -14 0
-7 -8 14 0
7 8 -14 0
-5 -8 14 0
-5 -7 14 0
12 13 14 -15 0
12 13 -14 15 0
12 -13 14 15 0
12 -13 -14 -15 0
-12 13 14 15 0
-12 13 -14 -15 0
-12 -13 14 -15 0
-12 -13 -14 15 0
-1 -16 17 0
1 -17 0
16 -17 0
-18 0
15 17 18 -19 0
15 17 -18 19 0
15 -17 18 19 0
15 -17 -18 -19 0
-15 17 18 19 0
-15 17 -18 -19 0
-15 -17 18 -19 0
-15 -17 -18 19 0
-10 -19 20 0
10 -20 0
19 -20 0
-21 -2 22 0
21 -22 0
2 -22 0
-11 -6 23 0
11 -23 0
6 -23 0
12 13 -24 0
12 14 -24 0
-13 -14 24 0
13 14 -24 0
-12 -14 24 0
-12 -13 24 0
22 23 24 -25 0
22 23 -24 25 0
22 -23 24 25 0
22 -23 -24 -25 0
-22 23 24 25 0
-22 23 -24 -25 0
-22 -23 24 -25 0
-22 -23 -24 25 0
-4 -16 26 0
4 -26 0
16 -26 0
15 17 -27 0
15 18 -27 0
-17 -18 27 0
17 18 -27 0
-15 -18 27 0
-15 -17 27 0
25 26 27 -28 0
25 26 -27 28 0
25 -26 27 28 0
25 -26 -27 -28 0
-25 26 27 28 0
-25 26 -27 -28 0
-25 -26 27 -28 0
-25 -26 -27 28 0
-1 -29 30 0
1 -30 0
29 -30 0
-31 0
28 30 31 -32 0
28 30 -31 32 0
28 -30 31 32 0
28 -30 -31 -32 0
-28 30 31 32 0
-28 30 -31 -32 0
-28 -30 31 -32 0
-28 -30 -31 32 0
-20 -32 33 0
20 -33 0
32 -33 0
-34 -2 35 0
34 -35 0
2 -35 0
-21 -6 36 0
21 -36 0
6 -36 0
22 23 -37 0
22 24 -37 0
-23 -24 37 0
23 24 -37 0
-22 -24 37 0
-22 -23 37 0
35 36 37 -38 0
35 36 -37 38 0
35 -36 37 38 0
35 -36 -37 -38 0
-35 36 37 38 0
-35 36 -37 -38 0
-35 -36 37 -38 0
-35 -36 -37 38 0
-11 -16 39 0
11 -39 0
16 -39 0
25 26 -40 0
25 27 -40 0
-26 -27 40 0
26 27 -40 0
-25 -27 40 0
-25 -26 40 0
38 39 40 -41 0
38 39 -40 41 0
38 -39 40 41 0
38 -39 -40 -41 0
-38 39 40 41 0
-38 39 -40 -41 0
-38 -39 40 -41 0
-38 -39 -40 41 0
-4 -29 42 0
4 -42 0
29 -42 0
28 30 -43 0
28 31 -43 0
-30 -31 43 0
30 31 -43 0
-28 -31 43 0
-28 -30 43 0
41 42 43 -44 0
41 42 -43 44 0
41 -42 43 44 0
41 -42 -43 -44 0
-41 42 43 44 0
-41 42 -43 -44 0
-41 -42 43 -44 0
-41 -42 -43 44 0
-1 -45 46 0
1 -46 0
45 -46 0
-47 0
44 46 47 -48 0
44 46 -47 48 0
44 -46 47 48 0
44 -46 -47 -48 0
-44 46 47 48 0
-44 46 -47 -48 0
-44 -46 47 -48 0
-44 -46 -47 48 0
-33 -48 49 0
33 -49 0
48 -49 0
-50 -2 51 0
50 -51 0
2 -51 0
-34 -6 52 0
34 -52 0
6 -52 0
35 36 -53 0
35 37 -53 0
-36 -37 53 0
36 37 -53 0
-35 -37 53 0
-35 -36 53 0
51 52 53 -54 0
51 52 -53 54 0
51 -52 53 54 0
51 -52 -53 -54 0
-51 52 53 54 0
-51 52 -53 -54 0
-51 -52 53 -54 0
-51 -52 -53 54 0
-21 -16 55 0
21 -55 0
16 -55 0
38 39 -56 0
38 40 -56 0
-39 -40 56 0
39 40 -56 0
-38 -40 56 0
-38 -39 56 0
54 55 56 -57 0
54 55 -56 57 0
54 -55 56 57 0
54 -55 -56 -57 0
-54 55 56 57 0
-54 55 -56 -57 0
-54 -55 56 -57 0
-54 -55 -56 57 0
-11 -29 58 0
11 -58 0
29 -58 0
41 42 -59 0
41 43 -59 0
-42 -43 59 0
42 43 -59 0
-41 -43 59 0
-41 -42 59 0
57 58 59 -60 0
57 58 -59 60 0
57 -58 59 60 0
57 -58 -59 -60 0
-57 58 59 60 0
-57 58 -59 -60 0
-57 -58 59 -60 0
-57 -58 -59 60 0
-4 -45 61 0
4 -61 0
45 -61 0
44 46 -62 0
44 47 -62 0
-46 -47 62 0
46 47 -62 0
-44 -47 62 0
-44 -46 62 0
60 61 62 -63 0
60 61 -62 63 0
60 -61 62 63 0
60 -61 -62 -63 0
-60 61 62 63 0
-60 61 -62 -63 0
-60 -61 62 -63 0
-60 -61 -62 63 0
-1 -64 65 0
1 -65 0
64 -65 0
-66 0
63 65 66 -67 0
63 65 -66 67 0
63 -65 66 67 0
63 -65 -66 -67 0
-63 65 66 67 0
-63 65 -66 -67 0
-63 -65 66 -67 0
-63 -65 -66 67 0
-49 -67 68 0
49 -68 0
67 -68 0
-69 -2 70 0
69 -70 0
2 -70 0
-50 -6 71 0
50 -71 0
6 -71 0
51 52 -72 0
51 53 -72 0
-52 -53 72 0
52 53 -72 0
-51 -53 72 0
-51 -52 72 0
70 71 72 -73 0
70 71 -72 73 0
70 -71 72 73 0
70 -71 -72 -73 0
-70 71 72 73 0
-70 71 -72 -73 0
-70 -71 72 -73 0
-70 -71 -72 73 0
-34 -16 74 0
34 -74 0
16 -74 0
54 55 -75 0
54 56 -75 0
-55 -56 75 0
55 56 -75 0
-54 -56 75 0
-54 -55 75 0
73 74 75 -76 0
73 74 -75 76 0
73 -74 75 76 0
73 -74 -75 -76 0
-73 74 75 76 0
-73 74 -75 -76 0
-73 -74 75 -76 0
-73 -74 -75 76 0
-21 -29 77 0
21 -77 0
29 -77 0
57 58 -78 0
57 59 -78 0
-58 -59 78 0
58 59 -78 0
-57 -59 78 0
-57 -58 78 0
76 77 78 -79 0
76 77 -78 79 0
76 -77 78 79 0
76 -77 -78 -79 0
-76 77 78 79 0
-76 77 -78 -79 0
-76 -77 78 -79 0
-76 -77 -78 79 0
-11 -45 80 0
11 -80 0
45 -80 0
60 61 -81 0
60 62 -81 0
-61 -62 81 0
61 62 -81 0
-60 -62 81 0
-60 -61 81 0
79 80 81 -82 0
79 80 -81 82 0
79 -80 81 82 0
79 -80 -81 -82 0
-79 80 81 82 0
-79 80 -81 -82 0
-79 -80 81 -82 0
-79 -80 -81 82 0
-4 -64 83 0
4 -83 0
64 -83 0
63 65 -84 0
63 66 -84 0
-65 -66 84 0
65 66 -84 0
-63 -66 84 0
-63 -65 84 0
82 83 84 -85 0
82 83 -84 85 0
82 -83 84 85 0
82 -83 -84 -85 0
-82 83 84 85 0
-82 83 -84 -85 0
-82 -83 84 -85 0
-82 -83 -84 85 0
-1 -86 87 0
1 -87 0
86 -87 0
-88 0
85 87 88 -89 0
85 87 -88 89 0
85 -87 88 89 0
85 -87 -88 -89 0
-85 87 88 89 0
-85 87 -88 -89 0
-85 -87 88 -89 0
-85 -87 -88 89 0
-68 -89 90 0
68 -90 0
89 -90 0
-91 -2 92 0
91 -92 0
2 -92 0
-69 -6 93 0
69 -93 0
6 -93 0
70 71 -94 0
70 72 -94 0
-71 -72 94 0
71 72 -94 0
-70 -72 94 0
-70 -71 94 0
92 93 94 -95 0
92 93 -94 95 0
92 -93 94 95 0
92 -93 -94 -95 0
-92 93 94 95 0
-92 93 -94 -95 0
-92 -93 94 -95 0
-92 -93 -94 95 0
-50 -16 96 0
50 -96 0
16 -96 0
73 74 -97 0
73 75 -97 0
-74 -75 97 0
74 75 -97 0
-73 -75 97 0
-73 -74 97 0
95 96 97 -98 0
95 96 -97 98 0
95 -96 97 98 0
95 -96 -97 -98 0
-95 96 97 98 0
-95 96 -97 -98 0
-95 -96 97 -98 0
-95 -96 -97 98 0
-34 -29 99 0
34 -99 0
29 -99 0
76 77 -100 0
76 78 -100 0
-77 -78 100 0
77 78 -100 0
-76 -78 100 0
-76 -77 100 0
98 99 100 -101 0
98 99 -100 101 0
98 -99 100 101 0
98 -99 -100 -101 0
-98 99 100 101 0
-98 99 -100 -101 0
-98 -99 100 -101 0
-98 -99 -100 101 0
-21 -45 102 0
21 -102 0
45 -102 0
79 80 -103 0
79 81 -103 0
-80 -81 103 0
80 81 -103 0
-79 -81 103 0
-79 -80 103 0
101 102 103 -104 0
101 102 -103 104 0
101 -102 103 104 0
101 -102 -103 -104 0
-101 102 103 104 0
-101 102 -103 -104 0
-101 -102 103 -104 0
-101 -102 -103 104 0
-11 -64 105 0
11 -105 0
64 -105 0
82 83 -106 0
82 84 -106 0
-83 -84 106 0
83 84 -106 0
-82 -84 106 0
-82 -83 106 0
104 105 106 -107 0
104 105 -106 107 0
104 -105 106 107 0
104 -105 -106 -107 0
-104 105 106 107 0
-104 105 -106 -107 0
-104 -105 106 -107 0
-104 -105 -106 107 0
-4 -86 108 0
4 -108 0
86 -108 0
85 87 -109 0
85 88 -109 0
-87 -88 109 0
87 88 -109 0
-85 -88 109 0
-85 -87 109 0
107 108 109 -110 0
107 108 -109 110 0
107 -108 109 110 0
107 -108 -109 -110 0
-107 108 109 110 0
-107 108 -109 -110 0
-107 -108 109 -110 0
-107 -108 -109 110 0
-1 -111 112 0
1 -112 0
111 -112 0
-113 0
110 112 113 -114 0
110 112 -113 114 0
110 -112 113 114 0
110 -112 -113 -114 0
-110 112 113 114 0
-110 112 -113 -114 0
-110 -112 113 -114 0
-110 -112 -113 114 0
-114 -115 0
114 115 0
-90 -115 116 0
90 -116 0
115 -116 0
116 0
